
List of user-set options:

                                    Name   Value                used
                           linear_solver = ma57                  yes
                  ma57_automatic_scaling = yes                   yes
                                max_iter = 2000                  yes
                             mu_strategy = adaptive              yes
                             output_file = DynamicOptimization_lMtildestateIPOPTinfo.txt  yes
                             print_level = 5                     yes
                      print_user_options = yes                   yes
                                     tol = 1e-005                yes
This is Ipopt version 3.11.0, running with linear solver ma57.

Number of nonzeros in equality constraint Jacobian...:    37801
Number of nonzeros in inequality constraint Jacobian.:       36
Number of nonzeros in Lagrangian Hessian.............:    15750

Total number of variables............................:     8209
                     variables with only lower bounds:        0
                variables with lower and upper bounds:     8209
                     variables with only upper bounds:        0
Total number of equality constraints.................:     6301
Total number of inequality constraints...............:       19
        inequality constraints with only lower bounds:        0
   inequality constraints with lower and upper bounds:       19
        inequality constraints with only upper bounds:        0

iter    objective    inf_pr   inf_du lg(mu)  ||d||  lg(rg) alpha_du alpha_pr  ls
   0 9.9999900e-003 1.65e+003 2.21e-003   0.0 0.00e+000    -  0.00e+000 0.00e+000   0
   1 9.9990000e-005 1.58e+003 1.63e+000  -5.9 1.46e+000    -  6.31e-002 4.24e-002h  1
   2 4.3325224e-004 1.54e+003 6.16e+000  -6.0 3.52e+000    -  7.90e-003 2.68e-002h  1
   3 2.1975161e-002 1.54e+003 8.02e+004   0.4 3.26e+001   2.0 9.62e-001 6.61e-004f  1
   4 2.2106049e-002 1.54e+003 8.02e+004   2.3 8.79e+001    -  1.08e-018 8.58e-019H  1
   5 2.2678485e-002 1.59e+003 3.39e+005   1.2 7.01e+000    -  1.35e-001 4.69e-002f  2
   6 2.4463676e-002 1.59e+003 3.39e+005   0.5 7.85e+001   1.5 4.35e-006 4.26e-006H  1
   7 2.4858695e-002 1.56e+003 3.32e+005   0.5 2.07e+001    -  2.60e-002 1.93e-002f  1
   8 2.5294997e-002 1.52e+003 3.24e+005   0.5 2.08e+001   1.9 2.69e-002 2.41e-002f  1
   9 2.5458175e-002 1.50e+003 3.19e+005   0.5 3.35e+001    -  1.23e-002 1.72e-002f  1
iter    objective    inf_pr   inf_du lg(mu)  ||d||  lg(rg) alpha_du alpha_pr  ls
  10 2.7674072e-002 1.41e+003 3.01e+005   0.5 1.10e+001   2.4 1.79e-002 5.79e-002f  1
  11 2.7574284e-002 1.39e+003 2.95e+005   0.5 1.69e+001   1.9 1.59e-002 1.84e-002f  1
  12 2.9344910e-002 1.29e+003 2.75e+005   0.5 1.57e+001   2.3 2.57e-002 7.15e-002f  1
  13 2.8724064e-002 1.29e+003 2.75e+005   0.5 2.61e+004   1.8 8.33e-006 1.26e-005h  1
  14 2.8980053e-002 1.28e+003 2.72e+005   0.5 1.71e+001   2.3 4.70e-003 1.05e-002f  1
  15 2.9223692e-002 1.27e+003 2.71e+005   0.5 2.60e+001   2.7 8.14e-003 4.61e-003h  1
  16 2.9233113e-002 1.27e+003 2.71e+005   0.5 2.24e+001   3.1 2.61e-002 8.62e-005h  1
  17 2.9371617e-002 1.27e+003 2.71e+005   0.5 1.34e+002   2.6 1.98e-003 8.50e-004h  1
  18 2.9405318e-002 1.27e+003 2.71e+005   0.5 7.58e+001   3.1 5.84e-004 2.88e-004h  1
  19 2.9417624e-002 1.27e+003 2.71e+005   0.5 2.44e+002   2.6 1.86e-004 2.09e-004h  1
iter    objective    inf_pr   inf_du lg(mu)  ||d||  lg(rg) alpha_du alpha_pr  ls
  20 2.9423620e-002 1.27e+003 2.71e+005   0.5 3.52e+002   3.0 1.79e-004 5.13e-005h  1
  21 2.9427352e-002 1.27e+003 2.70e+005   0.5 4.47e+002   2.5 1.90e-004 7.03e-005h  1
  22 2.9446849e-002 1.27e+003 2.70e+005   0.5 3.35e+002   3.0 2.46e-004 1.76e-004h  1
  23 2.9449417e-002 1.27e+003 2.70e+005   0.5 6.86e+002   2.5 7.15e-004 5.12e-005h  1
  24 2.9454229e-002 1.27e+003 1.47e+006   0.5 2.38e+003   2.9 3.54e-004 4.74e-005h  1
  25r2.9454229e-002 1.27e+003 1.00e+003   2.4 0.00e+000   2.4 0.00e+000 4.35e-007R  5
  26r2.9507406e-002 1.15e+003 9.99e+002  -3.9 1.70e+005    -  1.12e-003 1.12e-003f  1
  27 2.9516365e-002 1.15e+003 1.66e+003   0.5 9.54e+001    -  2.80e-003 3.12e-006f  1
  28 2.9548716e-002 1.15e+003 3.27e+004   0.5 1.20e+003    -  2.95e-004 1.14e-005h  1
  29r2.9548716e-002 1.15e+003 9.99e+002   2.0 0.00e+000    -  0.00e+000 2.71e-007R  3
iter    objective    inf_pr   inf_du lg(mu)  ||d||  lg(rg) alpha_du alpha_pr  ls
  30r3.8782373e-002 1.14e+003 9.99e+002   0.2 8.19e+004    -  2.33e-004 2.75e-004f  1
  31 3.8783297e-002 1.14e+003 4.19e+003   0.5 8.22e+001    -  1.64e-003 3.42e-007f  2
  32r3.8783297e-002 1.14e+003 9.99e+002   2.0 0.00e+000    -  0.00e+000 3.90e-007R  4
  33r5.7383169e-002 1.13e+003 9.99e+002   1.6 6.69e+004    -  3.21e-004 3.04e-004f  1
  34r5.7383169e-002 1.13e+003 9.99e+002   1.9 0.00e+000    -  0.00e+000 4.19e-007R  4
  35r1.2215218e-001 1.10e+003 9.98e+002   2.0 5.16e+004    -  5.93e-004 5.76e-004f  1
  36r3.0109330e-001 1.03e+003 9.97e+002   2.0 2.36e+004    -  3.03e-003 1.76e-003f  1
  37r1.0866772e+000 8.66e+002 1.19e+003   2.7 7.53e+003    -  8.91e-003 4.50e-003f  1
  38r1.2247573e+000 2.08e+004 1.74e+005  -4.4 6.17e+003    -  3.13e-003 6.41e-003f  1
  39r1.3151005e+000 7.69e+003 5.02e+005   1.4 3.73e-001   4.0 9.93e-001 9.91e-001f  1
iter    objective    inf_pr   inf_du lg(mu)  ||d||  lg(rg) alpha_du alpha_pr  ls
  40r1.3554909e+000 5.66e+003 3.69e+005   2.3 3.98e-001   5.3 1.00e+000 3.05e-001f  1
  41r1.4569802e+000 2.99e+003 1.13e+006   2.6 2.90e-001   5.8 1.00e+000 6.35e-001f  1
  42r1.4717719e+000 2.79e+003 3.36e+006   3.7 2.08e+000   6.2 8.32e-001 6.93e-002f  1
  43r1.7798080e+000 9.96e+002 1.27e+006   3.5 3.08e-001   5.7 8.35e-001 1.00e+000f  1
  44r2.0022116e+000 6.63e+002 4.43e+005   3.3 2.31e-001   6.1 9.89e-001 9.65e-001f  1
  45r2.0499488e+000 6.62e+002 1.72e+005   2.7 4.77e-002   6.6 9.98e-001 1.00e+000f  1
  46r2.0528584e+000 6.62e+002 3.72e+004   2.0 1.58e-002   6.1 1.00e+000 1.00e+000f  1
  47 3.3279487e+000 5.03e+002 3.19e+002  -0.5 4.70e+000    -  3.15e-001 2.71e-001h  1
  48 3.7886344e+000 4.94e+002 3.12e+002  -6.1 2.56e+001    -  5.83e-002 1.80e-002h  1
  49 5.0743975e+000 4.81e+002 8.43e+002  -0.1 5.96e+001    -  1.49e-002 2.62e-002f  1
iter    objective    inf_pr   inf_du lg(mu)  ||d||  lg(rg) alpha_du alpha_pr  ls
  50 5.2261068e+000 4.79e+002 9.09e+002  -0.2 5.99e+001    -  5.00e-003 3.98e-003h  1
  51 5.4772768e+000 4.78e+002 9.32e+002  -0.2 2.14e+002    -  1.93e-004 3.52e-003f  1
  52 5.8769733e+000 4.74e+002 1.03e+003  -0.2 5.65e+001    -  3.22e-003 7.07e-003h  1
  53 5.8771344e+000 4.74e+002 1.03e+003  -0.2 5.64e+000   2.0 1.21e-002 2.15e-004h  1
  54 5.8949069e+000 4.63e+002 1.58e+003  -0.2 9.34e+000   1.5 2.72e-002 2.31e-002h  1
  55 5.9020521e+000 4.63e+002 1.58e+003  -0.2 1.39e+002    -  1.52e-003 2.05e-004h  1
  56 5.9159190e+000 4.63e+002 1.58e+003  -0.2 4.06e+001    -  2.59e-002 3.42e-004h  1
  57 6.2546745e+000 4.60e+002 1.59e+003  -0.2 9.04e+001    -  1.01e-002 7.08e-003h  1
  58 6.3348455e+000 4.58e+002 1.58e+003  -6.1 5.02e+001    -  8.68e-003 3.52e-003h  1
  59 7.3019405e+000 4.56e+002 1.58e+003   0.8 2.12e+002    -  2.63e-002 4.64e-003f  1
iter    objective    inf_pr   inf_du lg(mu)  ||d||  lg(rg) alpha_du alpha_pr  ls
  60 7.3579339e+000 4.55e+002 1.56e+003  -6.0 8.19e+001    -  3.15e-003 1.67e-003h  1
  61 9.2094382e+000 4.52e+002 2.13e+003   1.0 2.52e+002    -  3.51e-003 7.34e-003f  1
  62 9.2484775e+000 4.47e+002 1.89e+003   1.0 3.62e+001   1.0 2.64e-002 1.00e-002f  1
  63 2.2317069e+001 4.41e+002 1.91e+003   1.7 9.45e+002    -  1.60e-001 1.38e-002f  1
  64 2.2327770e+001 4.41e+002 1.91e+003  -5.0 6.96e+001    -  1.16e-003 1.54e-004h  1
  65 3.1317265e+001 4.35e+002 4.40e+004   2.3 6.76e+002    -  7.54e-003 1.33e-002f  1
  66 3.1329136e+001 4.28e+002 3.62e+005   3.0 3.45e+001   3.2 6.66e-003 1.66e-002F  1
  67 3.1329663e+001 4.27e+002 3.62e+005   3.1 4.92e+000   4.6 1.01e-001 1.67e-003h  1
  68 3.1340730e+001 4.13e+002 7.54e+005   0.4 9.01e+000   4.1 3.03e-002 3.55e-002h  1
  69 3.1343266e+001 4.09e+002 7.51e+005   3.0 1.04e+001   4.5 9.99e-001 7.64e-003h  1
iter    objective    inf_pr   inf_du lg(mu)  ||d||  lg(rg) alpha_du alpha_pr  ls
  70 3.1346941e+001 4.07e+002 9.27e+005  -3.0 6.07e+001   4.0 5.99e-003 6.24e-003h  1
  71 3.1348715e+001 4.05e+002 1.31e+006   3.1 1.02e+002   4.5 1.24e-002 4.32e-003h  1
  72 3.1350179e+001 4.04e+002 1.49e+006  -3.0 1.25e+002   4.0 6.43e-003 2.25e-003h  1
  73 3.1353722e+001 4.03e+002 1.42e+006  -3.0 1.63e+002   3.5 1.28e-003 3.03e-003h  1
  74 3.1454862e+001 4.03e+002 1.40e+006   3.1 2.21e+002    -  1.73e-004 7.07e-004h  1
  75 3.1441205e+001 4.03e+002 4.55e+006   1.8 3.29e+002    -  2.42e-003 2.48e-004h  1
  76 3.1356697e+001 4.02e+002 1.05e+007   3.1 2.43e+002    -  1.29e-003 7.12e-004h  1
  77 3.1351673e+001 4.02e+002 8.75e+007   3.1 1.41e+003    -  2.22e-004 2.20e-005h  1
  78 3.1357011e+001 4.02e+002 8.50e+007   3.1 3.24e+003    -  8.51e-006 8.51e-006s  6
  79r3.1357011e+001 4.02e+002 9.96e+002   3.1 0.00e+000    -  0.00e+000 3.27e-007R  5
iter    objective    inf_pr   inf_du lg(mu)  ||d||  lg(rg) alpha_du alpha_pr  ls
  80r3.2672666e+001 3.86e+002 9.53e+002  -3.0 4.28e+003    -  1.49e-001 1.72e-002f  1
  81r3.2672666e+001 3.86e+002 9.99e+002   1.0 0.00e+000    -  0.00e+000 4.14e-007R  3
  82r3.4789584e+001 3.37e+002 9.84e+002  -0.3 8.04e+003    -  1.89e-002 1.26e-003f  1
  83 3.4796862e+001 3.37e+002 1.19e+002   0.4 2.46e+002    -  8.41e-003 9.44e-005f  1
  84 3.7081777e+001 3.37e+002 1.61e+002   2.0 2.86e+003    -  1.05e-003 7.98e-004f  1
  85 3.7106244e+001 3.37e+002 4.82e+002   0.0 3.99e+002    -  1.21e-003 2.42e-004h  1
  86 3.7107301e+001 3.37e+002 3.31e+003   0.0 4.85e+001    -  1.37e-003 3.28e-005h  1
  87 3.7187688e+001 3.37e+002 2.59e+003   0.0 1.76e+003    -  3.04e-005 5.32e-004h  1
  88 3.7189217e+001 3.37e+002 4.82e+005   0.0 1.05e+003    -  2.56e-003 1.07e-005h  1
  89r3.7189217e+001 3.37e+002 9.99e+002   0.3 0.00e+000    -  0.00e+000 4.91e-007R  5
iter    objective    inf_pr   inf_du lg(mu)  ||d||  lg(rg) alpha_du alpha_pr  ls
  90r3.8459269e+001 2.22e+002 9.89e+002   1.7 2.18e+003    -  2.26e-002 1.02e-003f  1
  91 3.8460623e+001 2.22e+002 4.79e+003   0.6 9.02e+001    -  3.58e-002 1.50e-005h  1
  92 3.8469680e+001 2.22e+002 1.16e+007   1.5 7.40e+002    -  3.16e-002 1.22e-005h  1
  93r3.8469680e+001 2.22e+002 9.99e+002   1.5 0.00e+000    -  0.00e+000 2.52e-007R  2
  94r4.0835539e+001 1.47e+002 8.82e+002   1.0 1.14e+002    -  3.16e-001 2.07e-002f  1
  95 4.0835854e+001 1.47e+002 1.99e+002  -5.9 3.02e+001    -  1.37e-002 6.79e-005h  1
  96 4.3255968e+001 1.46e+002 1.01e+004   2.1 3.34e+003    -  1.25e-005 7.25e-004f  1
  97 4.3255986e+001 1.46e+002 1.45e+005  -0.0 1.24e+001   3.0 7.53e-002 6.35e-005h  1
  98 4.3328305e+001 1.46e+002 1.44e+005  -0.0 9.62e+002    -  3.86e-004 4.87e-004h  1
  99 4.3345937e+001 1.46e+002 1.46e+005  -0.0 2.46e+003    -  1.53e-004 1.05e-004h  1
iter    objective    inf_pr   inf_du lg(mu)  ||d||  lg(rg) alpha_du alpha_pr  ls
 100 4.3358268e+001 1.46e+002 1.47e+005  -0.0 3.58e+003    -  1.11e-004 6.50e-005h  1
 101r4.3358268e+001 1.46e+002 9.99e+002   0.1 0.00e+000    -  0.00e+000 3.93e-007R  3
 102r4.4265907e+001 1.08e+002 9.90e+002   1.4 1.34e+003    -  4.65e-002 1.00e-003f  1
 103 4.4265577e+001 1.08e+002 4.39e+002  -5.9 4.73e+001    -  6.09e-003 1.37e-005h  1
 104 4.4302651e+001 1.08e+002 3.51e+004   1.4 6.64e+002    -  1.54e-002 5.58e-005h  1
 105 4.4542853e+001 1.08e+002 1.33e+006   2.2 3.57e+003    -  2.66e-003 6.73e-005h  1
 106r4.4542853e+001 1.08e+002 1.00e+003   2.3 0.00e+000    -  0.00e+000 4.69e-007R  4
 107r4.9735259e+001 5.66e+004 7.24e+006   1.1 1.69e+001    -  9.35e-001 3.08e-001f  1
 108r4.9742544e+001 2.08e+004 2.66e+006   0.7 9.86e-002   4.0 1.00e+000 1.00e+000f  1
 109r4.9745021e+001 8.73e+003 1.12e+006   1.5 1.60e-001   3.5 1.00e+000 8.69e-001f  1
iter    objective    inf_pr   inf_du lg(mu)  ||d||  lg(rg) alpha_du alpha_pr  ls
 110r4.9728328e+001 3.20e+003 4.11e+005   1.9 2.68e-001   3.0 8.00e-001 1.00e+000f  1
 111r4.9738307e+001 1.43e+003 1.84e+005   1.4 2.04e-001   2.6 1.00e+000 8.02e-001f  1
 112r4.9813621e+001 5.95e+002 7.78e+004   0.7 6.15e-001   2.1 8.63e-001 8.61e-001f  1
 113r4.9931566e+001 4.30e+002 5.62e+004   0.4 1.04e+000   1.6 1.00e+000 3.24e-001f  1
 114r5.0471399e+001 1.91e+002 2.68e+004   1.1 1.16e+000   1.1 1.00e+000 7.44e-001f  1
 115r7.9009010e+001 6.14e+001 9.89e+003   0.9 2.85e+001    -  9.99e-001 1.00e+000f  1
 116r7.9044856e+001 5.87e+001 9.46e+003   0.9 1.34e+001   0.7 6.80e-002 4.37e-002h  1
 117r8.0407687e+001 2.56e+001 4.52e+003   0.9 1.99e+000   0.2 9.84e-001 6.85e-001f  1
 118r8.0506615e+001 4.43e+000 1.11e+003   0.6 2.23e-001   1.5 9.79e-001 1.00e+000f  1
 119r8.5869108e+001 4.24e+000 3.95e+002   0.3 9.19e+000    -  9.70e-001 5.84e-001f  1
iter    objective    inf_pr   inf_du lg(mu)  ||d||  lg(rg) alpha_du alpha_pr  ls
 120r8.7850485e+001 2.34e+000 2.19e+002   0.2 4.35e+000    -  9.88e-001 4.56e-001f  1
 121r7.8240945e+001 1.45e+000 1.77e+001  -0.3 9.61e+000    -  9.97e-001 1.00e+000f  1
 122r6.4647083e+001 7.26e-001 5.39e+000  -1.4 1.36e+001    -  9.37e-001 1.00e+000f  1
 123r6.4642515e+001 1.11e-001 8.27e-001  -2.6 1.96e-002   1.0 1.00e+000 1.00e+000f  1
 124 3.5378747e+001 4.21e+000 2.40e+000  -0.9 2.93e+001    -  9.86e-001 1.00e+000f  1
 125 9.8371494e+000 6.00e+000 1.24e+000  -1.2 2.55e+001    -  9.11e-001 1.00e+000f  1
 126 1.7585101e+000 3.55e+000 1.44e+000  -1.8 8.08e+000    -  8.78e-001 1.00e+000f  1
 127 5.9145243e+000 4.58e+000 2.31e+000  -1.1 4.16e+000    -  3.07e-001 1.00e+000h  1
 128 5.9264953e+000 2.32e-001 1.05e+002  -1.8 1.15e-001   2.6 7.70e-001 1.00e+000h  1
 129 5.9194076e+000 6.70e-003 4.21e+000  -2.9 2.15e-002   2.1 1.00e+000 1.00e+000h  1
iter    objective    inf_pr   inf_du lg(mu)  ||d||  lg(rg) alpha_du alpha_pr  ls
 130 5.8959741e+000 3.73e-005 9.49e-001  -4.5 2.34e-002   1.6 1.00e+000 1.00e+000h  1
 131 5.8256208e+000 3.30e-004 9.50e-001  -6.2 7.04e-002   1.1 1.00e+000 1.00e+000f  1
 132 5.6149683e+000 3.00e-003 9.48e-001  -7.9 2.11e-001   0.7 1.00e+000 1.00e+000f  1
 133 4.9870152e+000 2.78e-002 9.42e-001  -9.4 6.28e-001   0.2 1.00e+000 1.00e+000f  1
 134 3.1485194e+000 2.74e-001 9.19e-001 -10.6 1.84e+000  -0.3 1.00e+000 1.00e+000f  1
 135 1.8029956e+000 4.70e-001 8.78e-001  -8.5 4.66e+000  -0.8 1.00e+000 2.88e-001f  1
 136 1.7952574e+000 4.67e-001 8.77e-001  -6.5 1.27e+000  -0.4 1.00e+000 6.10e-003h  1
 137 1.4100735e+000 4.76e-001 8.29e-001  -4.5 3.23e+000  -0.8 1.00e+000 1.19e-001h  1
 138 1.1330535e+000 4.89e-001 7.52e-001  -3.1 2.55e+000  -1.3 1.00e+000 1.08e-001f  1
 139 8.6534087e-001 5.05e-001 4.62e-001  -3.2 6.84e-001  -1.8 9.47e-001 3.92e-001h  1
iter    objective    inf_pr   inf_du lg(mu)  ||d||  lg(rg) alpha_du alpha_pr  ls
 140 1.1785260e+000 5.72e-002 7.45e-002  -3.3 3.13e-001  -1.4 9.90e-001 1.00e+000h  1
 141 5.5997129e-001 4.82e+000 1.07e-001  -3.4 7.85e-001    -  8.84e-001 8.97e-001h  1
 142 6.2503623e-001 2.10e+000 3.11e-001  -3.6 2.34e-001  -1.8 9.95e-001 1.00e+000h  1
 143 5.6805037e-001 4.42e-001 2.12e-001  -4.3 1.60e-001  -1.4 1.00e+000 1.00e+000h  1
 144 4.2593552e-001 2.81e-001 2.14e-002  -5.2 1.42e-001  -1.9 1.00e+000 1.00e+000h  1
 145 3.3437386e-001 2.01e+000 5.34e-002  -4.3 1.49e-001  -2.4 1.00e+000 1.00e+000h  1
 146 5.6750191e-001 5.12e+000 5.87e-002  -3.7 4.59e-001    -  1.00e+000 1.00e+000h  1
 147 4.9180129e-001 1.43e+000 2.55e-002  -3.8 3.24e-001  -2.8 1.00e+000 1.00e+000h  1
 148 4.6254572e-001 2.71e-001 3.02e-003  -3.8 1.60e-001    -  1.00e+000 1.00e+000h  1
 149 3.2117960e-001 7.46e-001 1.08e-002  -4.6 1.41e-001  -3.3 9.92e-001 1.00e+000h  1
iter    objective    inf_pr   inf_du lg(mu)  ||d||  lg(rg) alpha_du alpha_pr  ls
 150 2.7186970e-001 5.33e-001 5.60e-003  -5.1 1.08e-001  -2.9 1.00e+000 1.00e+000h  1
 151 2.7652958e-001 6.88e-001 3.01e-003  -4.8 1.28e-001  -3.4 1.00e+000 1.00e+000h  1
 152 2.5919654e-001 9.02e-002 1.72e-003  -5.4 5.98e-002  -2.9 1.00e+000 1.00e+000h  1
 153 2.6315693e-001 1.46e-001 7.74e-003  -5.1 2.30e-001  -3.4 1.00e+000 1.00e+000h  1
 154 2.5315213e-001 9.74e-002 3.38e-003  -5.9 6.51e-002  -3.0 1.00e+000 1.00e+000h  1
 155 2.5960457e-001 3.81e+000 5.76e-003  -5.2 5.13e-001    -  1.00e+000 1.00e+000h  1
 156 2.5764622e-001 7.72e+000 6.11e-003  -5.3 3.65e-001    -  1.00e+000 1.00e+000h  1
 157 2.5763885e-001 1.11e+000 1.30e-003  -5.3 6.81e-002    -  1.00e+000 1.00e+000h  1
 158 2.5764452e-001 4.68e-003 1.52e-005  -5.3 9.56e-003    -  1.00e+000 1.00e+000h  1
 159 2.5209952e-001 1.77e-001 7.75e-004  -6.0 1.57e-001    -  8.43e-001 1.00e+000h  1
iter    objective    inf_pr   inf_du lg(mu)  ||d||  lg(rg) alpha_du alpha_pr  ls
 160 2.5121122e-001 9.52e-001 1.52e-003  -6.3 1.31e-001    -  9.97e-001 1.00e+000h  1
 161 2.5080923e-001 8.38e-002 6.01e-004  -6.5 2.56e-002  -3.5 1.00e+000 1.00e+000h  1
 162 2.5051207e-001 1.56e+000 1.05e-003  -6.9 7.64e-002  -3.9 1.00e+000 1.00e+000h  1
 163 2.5037100e-001 5.75e-001 5.00e-004  -7.5 3.81e-002  -3.5 1.00e+000 1.00e+000h  1
 164 2.5098568e-001 1.40e+000 3.49e-003  -6.4 1.62e-001    -  4.93e-001 1.00e+000h  1
 165 2.5069074e-001 1.42e+000 1.51e-002  -6.7 2.80e-001    -  4.18e-001 7.52e-001h  1
 166 2.5062411e-001 4.92e-002 3.43e-003  -6.7 9.54e-002    -  1.00e+000 1.00e+000h  1
 167 2.5060274e-001 5.23e-002 7.93e-004  -6.7 1.03e-001    -  1.00e+000 1.00e+000h  1
 168 2.5053905e-001 6.09e-002 1.68e-003  -6.8 4.71e-002    -  1.00e+000 1.00e+000h  1
 169 2.5037388e-001 5.38e-002 2.09e-004  -7.3 2.82e-002    -  1.00e+000 1.00e+000h  1
iter    objective    inf_pr   inf_du lg(mu)  ||d||  lg(rg) alpha_du alpha_pr  ls
 170 2.5031997e-001 1.97e-002 5.04e-005  -8.0 2.29e-002    -  1.00e+000 1.00e+000h  1
 171 2.5030961e-001 3.14e-003 1.43e-005  -8.6 1.16e-002    -  1.00e+000 1.00e+000h  1
 172 2.5030738e-001 4.18e-004 1.81e-006  -9.0 4.25e-003    -  1.00e+000 1.00e+000h  1
 173 2.5030665e-001 3.03e-005 1.31e-007  -9.4 1.16e-003    -  1.00e+000 1.00e+000h  1
 174 2.5030626e-001 8.83e-006 2.53e-008 -10.0 5.13e-004    -  1.00e+000 1.00e+000h  1

Number of Iterations....: 174

                                   (scaled)                 (unscaled)
Objective...............:  2.5030626111620591e-001   2.5030626111620591e-001
Dual infeasibility......:  2.5313665222834648e-008   2.5313665222834648e-008
Constraint violation....:  4.3561108869698201e-006   8.8297562417238851e-006
Complementarity.........:  2.4182393830831455e-010   2.4182393830831455e-010
Overall NLP error.......:  4.3561108869698201e-006   8.8297562417238851e-006


Number of objective function evaluations             = 222
Number of objective gradient evaluations             = 148
Number of equality constraint evaluations            = 225
Number of inequality constraint evaluations          = 225
Number of equality constraint Jacobian evaluations   = 185
Number of inequality constraint Jacobian evaluations = 185
Number of Lagrangian Hessian evaluations             = 174
Total CPU secs in IPOPT (w/o function evaluations)   =     11.249
Total CPU secs in NLP function evaluations           =     15.143

EXIT: Optimal Solution Found.
